NAME 
ROWS
 N  OBJ
 L  R0      
 L  R1      
 L  R2      
 E  R3      
 E  R4      
 E  R5      
 E  R6      
 E  R7      
 E  R8      
 E  R9      
 E  R10     
 E  R11     
 E  R12     
 E  R13     
 E  R14     
 E  R15     
 E  R16     
 E  R17     
 E  R18     
 E  R19     
 E  R20     
 E  R21     
 E  R22     
COLUMNS
    MARKER    'MARKER'                 'INTORG'
    I0(11)    OBJ       142
    I0(11)    R0        -126
    I0(11)    R1        -134
    I0(11)    R2        47
    I0(11)    R3        8
    I0(11)    R6        14
    I0(11)    R8        5
    I0(11)    R11       -1
    I0(11)    R12       17
    I0(11)    R13       5
    I0(11)    R14       19
    I0(11)    R22       1
    I1(10)    OBJ       -101
    I1(10)    R0        -60
    I1(10)    R1        84
    I1(10)    R2        167
    I1(10)    R4        1
    I1(10)    R5        9
    I1(10)    R6        1
    I1(10)    R9        3
    I1(10)    R10       3
    I1(10)    R12       11
    I1(10)    R22       1
    I2(11)    OBJ       -133
    I2(11)    R0        74
    I2(11)    R1        -176
    I2(11)    R2        -52
    I2(11)    R4        1
    I2(11)    R5        16
    I2(11)    R6        12
    I2(11)    R7        15
    I2(11)    R11       2
    I2(11)    R13       13
    I2(11)    R14       12
    I2(11)    R22       1
    I3(13)    OBJ       137
    I3(13)    R0        118
    I3(13)    R1        35
    I3(13)    R2        71
    I3(13)    R3        17
    I3(13)    R5        16
    I3(13)    R6        9
    I3(13)    R8        10
    I3(13)    R9        15
    I3(13)    R10       17
    I3(13)    R11       15
    I3(13)    R12       16
    I3(13)    R14       17
    I3(13)    R22       1
    I4(13)    OBJ       -110
    I4(13)    R0        -168
    I4(13)    R1        126
    I4(13)    R2        141
    I4(13)    R3        -1
    I4(13)    R4        9
    I4(13)    R6        10
    I4(13)    R7        1
    I4(13)    R8        12
    I4(13)    R10       15
    I4(13)    R11       1
    I4(13)    R12       17
    I4(13)    R13       4
    I4(13)    R22       1
    I5(14)    OBJ       -150
    I5(14)    R0        125
    I5(14)    R1        -33
    I5(14)    R2        114
    I5(14)    R5        12
    I5(14)    R6        15
    I5(14)    R7        1
    I5(14)    R8        5
    I5(14)    R9        -1
    I5(14)    R10       6
    I5(14)    R11       8
    I5(14)    R12       -1
    I5(14)    R13       19
    I5(14)    R14       9
    I5(14)    R22       1
    I6(11)    OBJ       -160
    I6(11)    R0        1
    I6(11)    R1        38
    I6(11)    R2        -180
    I6(11)    R4        16
    I6(11)    R6        6
    I6(11)    R7        18
    I6(11)    R9        2
    I6(11)    R11       19
    I6(11)    R12       9
    I6(11)    R14       12
    I6(11)    R22       1
    I7(7)     OBJ       -36
    I7(7)     R0        143
    I7(7)     R1        20
    I7(7)     R2        -129
    I7(7)     R3        3
    I7(7)     R7        1
    I7(7)     R14       10
    I7(7)     R22       1
    I8(10)    OBJ       154
    I8(10)    R0        177
    I8(10)    R1        162
    I8(10)    R2        -183
    I8(10)    R3        18
    I8(10)    R8        2
    I8(10)    R9        13
    I8(10)    R11       16
    I8(10)    R12       12
    I8(10)    R14       14
    I8(10)    R22       1
    I9(15)    OBJ       134
    I9(15)    R0        164
    I9(15)    R1        165
    I9(15)    R2        143
    I9(15)    R3        6
    I9(15)    R4        3
    I9(15)    R5        12
    I9(15)    R7        9
    I9(15)    R8        18
    I9(15)    R9        4
    I9(15)    R10       12
    I9(15)    R11       14
    I9(15)    R12       7
    I9(15)    R13       18
    I9(15)    R14       1
    I9(15)    R22       1
    I10(14)   OBJ       -69
    I10(14)   R0        -122
    I10(14)   R1        31
    I10(14)   R2        66
    I10(14)   R3        11
    I10(14)   R4        7
    I10(14)   R6        17
    I10(14)   R7        3
    I10(14)   R8        2
    I10(14)   R10       3
    I10(14)   R11       18
    I10(14)   R12       14
    I10(14)   R13       4
    I10(14)   R14       18
    I10(14)   R22       1
    I11(12)   OBJ       -97
    I11(12)   R0        142
    I11(12)   R1        -21
    I11(12)   R2        196
    I11(12)   R5        17
    I11(12)   R6        -1
    I11(12)   R8        1
    I11(12)   R9        7
    I11(12)   R10       4
    I11(12)   R11       5
    I11(12)   R12       18
    I11(12)   R14       17
    I11(12)   R22       1
    MARKER    'MARKER'                 'INTEND'
    C12(14)   OBJ       6
    C12(14)   R0        5
    C12(14)   R1        -7
    C12(14)   R2        -3
    C12(14)   R4        9
    C12(14)   R5        19
    C12(14)   R6        3
    C12(14)   R8        4
    C12(14)   R9        8
    C12(14)   R10       3
    C12(14)   R14       19
    C12(14)   R16       4
    C12(14)   R17       7
    C12(14)   R18       5
    C12(14)   R20       16
    C13(15)   OBJ       -2
    C13(15)   R0        3
    C13(15)   R1        1
    C13(15)   R2        -7
    C13(15)   R3        11
    C13(15)   R4        4
    C13(15)   R5        7
    C13(15)   R6        16
    C13(15)   R10       10
    C13(15)   R11       19
    C13(15)   R12       13
    C13(15)   R14       7
    C13(15)   R15       3
    C13(15)   R17       11
    C13(15)   R18       13
    C13(15)   R19       1
    C14(19)   OBJ       -4
    C14(19)   R0        -9
    C14(19)   R1        -8
    C14(19)   R3        18
    C14(19)   R4        4
    C14(19)   R6        18
    C14(19)   R7        1
    C14(19)   R8        12
    C14(19)   R10       8
    C14(19)   R11       8
    C14(19)   R12       12
    C14(19)   R13       17
    C14(19)   R14       18
    C14(19)   R15       17
    C14(19)   R16       12
    C14(19)   R17       14
    C14(19)   R18       7
    C14(19)   R19       19
    C14(19)   R20       19
    C14(19)   R21       7
    C15(14)   OBJ       2
    C15(14)   R0        9
    C15(14)   R1        6
    C15(14)   R2        -4
    C15(14)   R4        11
    C15(14)   R5        16
    C15(14)   R7        5
    C15(14)   R8        8
    C15(14)   R9        2
    C15(14)   R10       5
    C15(14)   R13       11
    C15(14)   R18       18
    C15(14)   R19       2
    C15(14)   R20       -1
    C15(14)   R21       12
    C16(14)   OBJ       -4
    C16(14)   R0        -1
    C16(14)   R1        -3
    C16(14)   R2        -10
    C16(14)   R4        2
    C16(14)   R5        13
    C16(14)   R6        17
    C16(14)   R9        14
    C16(14)   R12       12
    C16(14)   R13       2
    C16(14)   R14       7
    C16(14)   R15       6
    C16(14)   R16       1
    C16(14)   R18       10
    C16(14)   R19       11
    C17(14)   OBJ       -9
    C17(14)   R0        4
    C17(14)   R1        -2
    C17(14)   R2        7
    C17(14)   R3        5
    C17(14)   R7        13
    C17(14)   R9        10
    C17(14)   R10       4
    C17(14)   R11       1
    C17(14)   R12       12
    C17(14)   R14       19
    C17(14)   R15       4
    C17(14)   R18       2
    C17(14)   R19       1
    C17(14)   R21       4
    C18(16)   OBJ       2
    C18(16)   R0        5
    C18(16)   R1        -7
    C18(16)   R2        -5
    C18(16)   R3        17
    C18(16)   R4        11
    C18(16)   R5        3
    C18(16)   R6        18
    C18(16)   R7        10
    C18(16)   R9        5
    C18(16)   R12       11
    C18(16)   R13       16
    C18(16)   R17       7
    C18(16)   R18       3
    C18(16)   R19       12
    C18(16)   R20       8
    C18(16)   R21       18
    C19(12)   OBJ       2
    C19(12)   R0        -7
    C19(12)   R1        6
    C19(12)   R2        -2
    C19(12)   R3        17
    C19(12)   R5        2
    C19(12)   R6        2
    C19(12)   R9        5
    C19(12)   R12       14
    C19(12)   R15       2
    C19(12)   R17       6
    C19(12)   R18       16
    C19(12)   R19       -1
    C20(1)    R3        1
    C21(1)    R4        1
    C22(1)    R5        1
    C23(1)    R6        1
    C24(1)    R7        1
    C25(1)    R8        1
    C26(1)    R9        1
    C27(1)    R10       1
    C28(1)    R11       1
    C29(1)    R12       1
    C30(1)    R13       1
    C31(1)    R14       1
    C32(1)    R15       1
    C33(1)    R16       1
    C34(1)    R17       1
    C35(1)    R18       1
    C36(1)    R19       1
    C37(1)    R20       1
    C38(1)    R21       1
    C39(1)    R22       1
RHS
    RHS1      R0        2.0028571428571428e+02
    RHS1      R1        -1.3514285714285714e+02
    RHS1      R2        -3.0514285714285717e+02
    RHS1      R3        76
    RHS1      R4        70
    RHS1      R5        63
    RHS1      R6        62
    RHS1      R7        60
    RHS1      R8        76
    RHS1      R9        63
    RHS1      R10       86
    RHS1      R11       51
    RHS1      R12       54
    RHS1      R13       70
    RHS1      R14       50
    RHS1      R15       55
    RHS1      R16       80
    RHS1      R17       90
    RHS1      R18       56
    RHS1      R19       54
    RHS1      R20       64
    RHS1      R21       78
    RHS1      R22       4
BOUNDS
 UP BND1      I0(11)    2
 UP BND1      I1(10)    2
 UP BND1      I2(11)    2
 UP BND1      I3(13)    2
 UP BND1      I4(13)    2
 UP BND1      I5(14)    2
 UP BND1      I6(11)    2
 UP BND1      I7(7)     2
 UP BND1      I8(10)    2
 UP BND1      I9(15)    2
 UP BND1      I10(14)   2
 UP BND1      I11(12)   2
ENDATA
